Maximize
  - 2.1118781948427 edge_0_1_0_0 - 2.9475864046888 edge_0_2_0_0
   - 0.27038860586244 edge_0_3_0_0 - 0.18901689538395 edge_0_4_0_0
   - 3.035120785476 edge_0_5_0_0 - 2.4014985043924 edge_0_7_0_0
   - 3.1683042313929 edge_0_10_0_0 - 3.1589120719685 edge_0_12_0_0
   - 0.82693609592076 edge_0_13_0_0 - 2.9615260511466 edge_0_15_0_0
   + 0.4011646139060064 edge_1_2_0_0 + 0.0213771015253678 edge_1_3_0_0
   + 0.3522922191105737 edge_1_4_0_0 - 0.0752936832770076 edge_1_5_0_0
   - 0.1745786356117607 edge_1_7_0_0 - 0.5503328327865349 edge_1_8_0_0
   - 0.3265212658441185 edge_1_10_0_0 - 0.5170208599535107 edge_1_12_0_0
   - 0.0357666559490812 edge_1_13_0_0 - 0.5205102237441661 edge_1_15_0_0
   + 0.88466639253454 edge_1_16_0_0 + 1.479860014423394 edge_2_1_0_0
   + 0.8818347918846799 edge_2_3_0_0 + 1.029663705201664 edge_2_4_0_0
   + 0.7901429061042818 edge_2_5_0_0 + 0.5250465913034359 edge_2_6_0_0
   + 1.902192416421894 edge_2_7_0_0 - 0.5711825226334201 edge_2_8_0_0
   - 0.3771799411342416 edge_2_9_0_0 + 0.6401447721149903 edge_2_10_0_0
   + 0.7367499303357804 edge_2_11_0_0 + 0.4976558288377268 edge_2_12_0_0
   + 1.103916033007515 edge_2_13_0_0 - 0.0263295728275639 edge_2_15_0_0
   + 1.27282803847874 edge_2_16_0_0 + 2.861749724247606 edge_3_1_0_0
   + 3.7597848490877 edge_3_2_0_0 + 0.4163927722549205 edge_3_4_0_0
   + 1.37636122618383 edge_3_5_0_0 + 0.3354905668364737 edge_3_6_0_0
   + 2.163679635742838 edge_3_7_0_0 - 0.1514045138256719 edge_3_8_0_0
   + 0.310903985009337 edge_3_9_0_0 + 1.937241963553474 edge_3_10_0_0
   + 1.802259971354456 edge_3_12_0_0 + 1.773029823695814 edge_3_13_0_0
   + 1.106962232718927 edge_3_15_0_0 + 2.75420078366382 edge_3_16_0_0
   + 0.7880317597895189 edge_4_1_0_0 + 1.60031980179051 edge_4_2_0_0
   - 0.7936033686627955 edge_4_3_0_0 + 1.514899888168065 edge_4_5_0_0
   + 0.5028180893785261 edge_4_6_0_0 + 1.933680946657374 edge_4_7_0_0
   + 0.4769500264112108 edge_4_8_0_0 + 0.2400426009225487 edge_4_9_0_0
   + 1.729743664397726 edge_4_10_0_0 + 2.227135443872392 edge_4_11_0_0
   + 2.978627394532098 edge_4_12_0_0 + 2.648318750377014 edge_4_13_0_0
   - 0.1381467204569263 edge_4_14_0_0 + 0.698246214357 edge_4_15_0_0
   + 3.329152204755 edge_4_16_0_0 - 0.1273652859145091 edge_5_1_0_0
   - 0.2882446843297127 edge_5_2_0_0 - 0.2667159282829533 edge_5_3_0_0
   + 0.3763184941358992 edge_5_4_0_0 + 0.982830199095409 edge_5_6_0_0
   + 0.5656693757677671 edge_5_7_0_0 - 0.1723747596305187 edge_5_8_0_0
   - 0.097066222978036 edge_5_9_0_0 + 0.0702929485148044 edge_5_10_0_0
   - 0.3681541347862263 edge_5_11_0_0 + 0.1206898962820297 edge_5_12_0_0
   - 0.0466531680054324 edge_5_13_0_0 - 0.256221414844892 edge_5_15_0_0
   + 0.1000579894539634 edge_5_16_0_0 - 0.9761532034073162 edge_6_2_0_0
   - 0.5309650738366042 edge_6_4_0_0 + 0.1764678763504055 edge_6_5_0_0
   - 0.5799551640020731 edge_6_10_0_0 + 0.4236985326428836 edge_7_1_0_0
   + 0.97815901024695 edge_7_2_0_0 + 0.00484005859398694 edge_7_3_0_0
   + 1.910345253897188 edge_7_4_0_0 + 3.680111714987589 edge_7_5_0_0
   + 3.768001397980284 edge_7_6_0_0 + 0.4020918796782095 edge_7_8_0_0
   + 0.6943016141653309 edge_7_9_0_0 + 2.817161046002115 edge_7_10_0_0
   + 1.51120037782578 edge_7_11_0_0 + 1.510658278959939 edge_7_12_0_0
   + 1.12527094151041 edge_7_13_0_0 - 0.1857234718052224 edge_7_14_0_0
   + 1.234926026570837 edge_7_15_0_0 + 1.791000634129201 edge_7_16_0_0
   + 0.2151789899062462 edge_8_5_0_0 + 0.465029269355862 edge_8_7_0_0
   + 0.713166751058391 edge_8_10_0_0 + 0.3570797112385208 edge_8_12_0_0
   + 0.3920635960296889 edge_8_13_0_0 - 0.2045621546773801 edge_8_14_0_0
   - 0.19937953258179 edge_8_15_0_0 - 0.9152231447400093 edge_9_2_0_0
   - 0.1845063497382865 edge_9_5_0_0 - 0.173907601245121 edge_9_7_0_0
   + 0.1744579083544735 edge_9_8_0_0 + 1.593393719783075 edge_9_10_0_0
   + 0.6781977442699963 edge_9_11_0_0 + 0.7904768718110003 edge_9_12_0_0
   + 0.1408912727148507 edge_9_13_0_0 - 0.1267547712973353 edge_9_15_0_0
   - 0.5707792658032443 edge_9_16_0_0 - 0.1577392534758733 edge_10_1_0_0
   - 0.1714733846975812 edge_10_2_0_0 - 0.2892207560279296 edge_10_3_0_0
   + 0.0625297071805939 edge_10_4_0_0 + 1.012354764484693 edge_10_5_0_0
   + 0.4216036226661852 edge_10_6_0_0 + 0.7801036829628101 edge_10_7_0_0
   + 2.74131853657572 edge_10_8_0_0 + 3.053469898856922 edge_10_9_0_0
   + 1.252942666456188 edge_10_11_0_0 + 1.480154863645424 edge_10_12_0_0
   + 0.7935400522076828 edge_10_13_0_0 + 0.0332624741972461 edge_10_14_0_0
   + 1.634259520114105 edge_10_15_0_0 + 1.074065574833676 edge_10_16_0_0
   - 0.2305247679025045 edge_11_12_0_0 - 0.394865118379673 edge_11_13_0_0
   - 1.310657031345157 edge_12_1_0_0 - 1.324773935500108 edge_12_2_0_0
   - 0.7855841369462345 edge_12_4_0_0 - 0.8307414108517949 edge_12_5_0_0
   - 0.8509383861608131 edge_12_7_0_0 - 0.1891635246808378 edge_12_8_0_0
   - 0.2904884330883584 edge_12_9_0_0 - 0.4572698117072135 edge_12_10_0_0
   - 0.2830010972947916 edge_12_11_0_0 + 0.1181579683111286 edge_12_13_0_0
   - 0.3450217176187559 edge_12_15_0_0 + 0.388203560453981 edge_12_16_0_0
   - 0.2081610244753118 edge_13_1_0_0 + 0.36806051895129 edge_13_2_0_0
   - 0.5952545579816984 edge_13_3_0_0 - 0.2551950189437003 edge_13_4_0_0
   - 0.4917868780986454 edge_13_5_0_0 + 0.1139763419661167 edge_13_7_0_0
   - 0.1074756567395549 edge_13_8_0_0 + 0.1324738858624173 edge_13_9_0_0
   + 0.113431314634267 edge_13_10_0_0 - 0.4788265771256682 edge_13_11_0_0
   + 0.8596895874298185 edge_13_12_0_0 + 0.7229973190683877 edge_13_14_0_0
   + 3.296286665309788 edge_13_15_0_0 + 1.793311786091113 edge_13_16_0_0
   - 1.989242325276141 edge_14_2_0_0 - 1.271580183669716 edge_14_10_0_0
   + 0.054868507436367 edge_14_16_0_0 - 0.514099588382041 edge_15_1_0_0
   + 0.2526991344008589 edge_15_2_0_0 - 0.00756834341325983 edge_15_3_0_0
   - 0.19705353744735 edge_15_4_0_0 + 0.8091203623933034 edge_15_5_0_0
   - 0.1476418098045409 edge_15_6_0_0 + 0.5177657055876944 edge_15_7_0_0
   + 0.9057003002830541 edge_15_8_0_0 + 1.178971174152415 edge_15_9_0_0
   + 0.6230557848933672 edge_15_10_0_0 + 0.4637789260719627 edge_15_11_0_0
   + 0.8094542995101494 edge_15_12_0_0 + 2.313688719046506 edge_15_13_0_0
   + 4.178161722139905 edge_15_14_0_0 + 1.5684299058942 edge_15_16_0_0
   - 1.193302978592752 edge_16_12_0_0 - 1.35385458522921 edge_16_13_0_0
   - 1.4404592221516 edge_16_15_0_0
Subject To
 one_parent_1: edge_0_1_0_0 + edge_2_1_0_0 + edge_3_1_0_0 + edge_4_1_0_0
   + edge_5_1_0_0 + edge_7_1_0_0 + edge_10_1_0_0 + edge_12_1_0_0
   + edge_13_1_0_0 + edge_15_1_0_0 = 1
 consume_one_flow_unit_1: flow_0_1_0_0 - flow_1_2_0_0 - flow_1_3_0_0
   - flow_1_4_0_0 - flow_1_5_0_0 - flow_1_7_0_0 - flow_1_8_0_0
   - flow_1_10_0_0 - flow_1_12_0_0 - flow_1_13_0_0 - flow_1_15_0_0
   - flow_1_16_0_0 + flow_2_1_0_0 + flow_3_1_0_0 + flow_4_1_0_0
   + flow_5_1_0_0 + flow_7_1_0_0 + flow_10_1_0_0 + flow_12_1_0_0
   + flow_13_1_0_0 + flow_15_1_0_0 = 1
 one_parent_2: edge_0_2_0_0 + edge_1_2_0_0 + edge_3_2_0_0 + edge_4_2_0_0
   + edge_5_2_0_0 + edge_6_2_0_0 + edge_7_2_0_0 + edge_9_2_0_0
   + edge_10_2_0_0 + edge_12_2_0_0 + edge_13_2_0_0 + edge_14_2_0_0
   + edge_15_2_0_0 = 1
 consume_one_flow_unit_2: flow_0_2_0_0 + flow_1_2_0_0 - flow_2_1_0_0
   - flow_2_3_0_0 - flow_2_4_0_0 - flow_2_5_0_0 - flow_2_6_0_0
   - flow_2_7_0_0 - flow_2_8_0_0 - flow_2_9_0_0 - flow_2_10_0_0
   - flow_2_11_0_0 - flow_2_12_0_0 - flow_2_13_0_0 - flow_2_15_0_0
   - flow_2_16_0_0 + flow_3_2_0_0 + flow_4_2_0_0 + flow_5_2_0_0
   + flow_6_2_0_0 + flow_7_2_0_0 + flow_9_2_0_0 + flow_10_2_0_0
   + flow_12_2_0_0 + flow_13_2_0_0 + flow_14_2_0_0 + flow_15_2_0_0 = 1
 one_parent_3: edge_0_3_0_0 + edge_1_3_0_0 + edge_2_3_0_0 + edge_4_3_0_0
   + edge_5_3_0_0 + edge_7_3_0_0 + edge_10_3_0_0 + edge_13_3_0_0
   + edge_15_3_0_0 = 1
 consume_one_flow_unit_3: flow_0_3_0_0 + flow_1_3_0_0 + flow_2_3_0_0
   - flow_3_1_0_0 - flow_3_2_0_0 - flow_3_4_0_0 - flow_3_5_0_0
   - flow_3_6_0_0 - flow_3_7_0_0 - flow_3_8_0_0 - flow_3_9_0_0
   - flow_3_10_0_0 - flow_3_12_0_0 - flow_3_13_0_0 - flow_3_15_0_0
   - flow_3_16_0_0 + flow_4_3_0_0 + flow_5_3_0_0 + flow_7_3_0_0
   + flow_10_3_0_0 + flow_13_3_0_0 + flow_15_3_0_0 = 1
 one_parent_4: edge_0_4_0_0 + edge_1_4_0_0 + edge_2_4_0_0 + edge_3_4_0_0
   + edge_5_4_0_0 + edge_6_4_0_0 + edge_7_4_0_0 + edge_10_4_0_0
   + edge_12_4_0_0 + edge_13_4_0_0 + edge_15_4_0_0 = 1
 consume_one_flow_unit_4: flow_0_4_0_0 + flow_1_4_0_0 + flow_2_4_0_0
   + flow_3_4_0_0 - flow_4_1_0_0 - flow_4_2_0_0 - flow_4_3_0_0
   - flow_4_5_0_0 - flow_4_6_0_0 - flow_4_7_0_0 - flow_4_8_0_0
   - flow_4_9_0_0 - flow_4_10_0_0 - flow_4_11_0_0 - flow_4_12_0_0
   - flow_4_13_0_0 - flow_4_14_0_0 - flow_4_15_0_0 - flow_4_16_0_0
   + flow_5_4_0_0 + flow_6_4_0_0 + flow_7_4_0_0 + flow_10_4_0_0
   + flow_12_4_0_0 + flow_13_4_0_0 + flow_15_4_0_0 = 1
 one_parent_5: edge_0_5_0_0 + edge_1_5_0_0 + edge_2_5_0_0 + edge_3_5_0_0
   + edge_4_5_0_0 + edge_6_5_0_0 + edge_7_5_0_0 + edge_8_5_0_0
   + edge_9_5_0_0 + edge_10_5_0_0 + edge_12_5_0_0 + edge_13_5_0_0
   + edge_15_5_0_0 = 1
 consume_one_flow_unit_5: flow_0_5_0_0 + flow_1_5_0_0 + flow_2_5_0_0
   + flow_3_5_0_0 + flow_4_5_0_0 - flow_5_1_0_0 - flow_5_2_0_0
   - flow_5_3_0_0 - flow_5_4_0_0 - flow_5_6_0_0 - flow_5_7_0_0
   - flow_5_8_0_0 - flow_5_9_0_0 - flow_5_10_0_0 - flow_5_11_0_0
   - flow_5_12_0_0 - flow_5_13_0_0 - flow_5_15_0_0 - flow_5_16_0_0
   + flow_6_5_0_0 + flow_7_5_0_0 + flow_8_5_0_0 + flow_9_5_0_0
   + flow_10_5_0_0 + flow_12_5_0_0 + flow_13_5_0_0 + flow_15_5_0_0 = 1
 one_parent_6: edge_2_6_0_0 + edge_3_6_0_0 + edge_4_6_0_0 + edge_5_6_0_0
   + edge_7_6_0_0 + edge_10_6_0_0 + edge_15_6_0_0 = 1
 consume_one_flow_unit_6: flow_2_6_0_0 + flow_3_6_0_0 + flow_4_6_0_0
   + flow_5_6_0_0 - flow_6_2_0_0 - flow_6_4_0_0 - flow_6_5_0_0
   - flow_6_10_0_0 + flow_7_6_0_0 + flow_10_6_0_0 + flow_15_6_0_0 = 1
 one_parent_7: edge_0_7_0_0 + edge_1_7_0_0 + edge_2_7_0_0 + edge_3_7_0_0
   + edge_4_7_0_0 + edge_5_7_0_0 + edge_8_7_0_0 + edge_9_7_0_0
   + edge_10_7_0_0 + edge_12_7_0_0 + edge_13_7_0_0 + edge_15_7_0_0 = 1
 consume_one_flow_unit_7: flow_0_7_0_0 + flow_1_7_0_0 + flow_2_7_0_0
   + flow_3_7_0_0 + flow_4_7_0_0 + flow_5_7_0_0 - flow_7_1_0_0
   - flow_7_2_0_0 - flow_7_3_0_0 - flow_7_4_0_0 - flow_7_5_0_0
   - flow_7_6_0_0 - flow_7_8_0_0 - flow_7_9_0_0 - flow_7_10_0_0
   - flow_7_11_0_0 - flow_7_12_0_0 - flow_7_13_0_0 - flow_7_14_0_0
   - flow_7_15_0_0 - flow_7_16_0_0 + flow_8_7_0_0 + flow_9_7_0_0
   + flow_10_7_0_0 + flow_12_7_0_0 + flow_13_7_0_0 + flow_15_7_0_0 = 1
 one_parent_8: edge_1_8_0_0 + edge_2_8_0_0 + edge_3_8_0_0 + edge_4_8_0_0
   + edge_5_8_0_0 + edge_7_8_0_0 + edge_9_8_0_0 + edge_10_8_0_0
   + edge_12_8_0_0 + edge_13_8_0_0 + edge_15_8_0_0 = 1
 consume_one_flow_unit_8: flow_1_8_0_0 + flow_2_8_0_0 + flow_3_8_0_0
   + flow_4_8_0_0 + flow_5_8_0_0 + flow_7_8_0_0 - flow_8_5_0_0
   - flow_8_7_0_0 - flow_8_10_0_0 - flow_8_12_0_0 - flow_8_13_0_0
   - flow_8_14_0_0 - flow_8_15_0_0 + flow_9_8_0_0 + flow_10_8_0_0
   + flow_12_8_0_0 + flow_13_8_0_0 + flow_15_8_0_0 = 1
 one_parent_9: edge_2_9_0_0 + edge_3_9_0_0 + edge_4_9_0_0 + edge_5_9_0_0
   + edge_7_9_0_0 + edge_10_9_0_0 + edge_12_9_0_0 + edge_13_9_0_0
   + edge_15_9_0_0 = 1
 consume_one_flow_unit_9: flow_2_9_0_0 + flow_3_9_0_0 + flow_4_9_0_0
   + flow_5_9_0_0 + flow_7_9_0_0 - flow_9_2_0_0 - flow_9_5_0_0
   - flow_9_7_0_0 - flow_9_8_0_0 - flow_9_10_0_0 - flow_9_11_0_0
   - flow_9_12_0_0 - flow_9_13_0_0 - flow_9_15_0_0 - flow_9_16_0_0
   + flow_10_9_0_0 + flow_12_9_0_0 + flow_13_9_0_0 + flow_15_9_0_0 = 1
 one_parent_10: edge_0_10_0_0 + edge_1_10_0_0 + edge_2_10_0_0
   + edge_3_10_0_0 + edge_4_10_0_0 + edge_5_10_0_0 + edge_6_10_0_0
   + edge_7_10_0_0 + edge_8_10_0_0 + edge_9_10_0_0 + edge_12_10_0_0
   + edge_13_10_0_0 + edge_14_10_0_0 + edge_15_10_0_0 = 1
 consume_one_flow_unit_10: flow_0_10_0_0 + flow_1_10_0_0 + flow_2_10_0_0
   + flow_3_10_0_0 + flow_4_10_0_0 + flow_5_10_0_0 + flow_6_10_0_0
   + flow_7_10_0_0 + flow_8_10_0_0 + flow_9_10_0_0 - flow_10_1_0_0
   - flow_10_2_0_0 - flow_10_3_0_0 - flow_10_4_0_0 - flow_10_5_0_0
   - flow_10_6_0_0 - flow_10_7_0_0 - flow_10_8_0_0 - flow_10_9_0_0
   - flow_10_11_0_0 - flow_10_12_0_0 - flow_10_13_0_0 - flow_10_14_0_0
   - flow_10_15_0_0 - flow_10_16_0_0 + flow_12_10_0_0 + flow_13_10_0_0
   + flow_14_10_0_0 + flow_15_10_0_0 = 1
 one_parent_11: edge_2_11_0_0 + edge_4_11_0_0 + edge_5_11_0_0
   + edge_7_11_0_0 + edge_9_11_0_0 + edge_10_11_0_0 + edge_12_11_0_0
   + edge_13_11_0_0 + edge_15_11_0_0 = 1
 consume_one_flow_unit_11: flow_2_11_0_0 + flow_4_11_0_0 + flow_5_11_0_0
   + flow_7_11_0_0 + flow_9_11_0_0 + flow_10_11_0_0 - flow_11_12_0_0
   - flow_11_13_0_0 + flow_12_11_0_0 + flow_13_11_0_0 + flow_15_11_0_0 = 1
 one_parent_12: edge_0_12_0_0 + edge_1_12_0_0 + edge_2_12_0_0
   + edge_3_12_0_0 + edge_4_12_0_0 + edge_5_12_0_0 + edge_7_12_0_0
   + edge_8_12_0_0 + edge_9_12_0_0 + edge_10_12_0_0 + edge_11_12_0_0
   + edge_13_12_0_0 + edge_15_12_0_0 + edge_16_12_0_0 = 1
 consume_one_flow_unit_12: flow_0_12_0_0 + flow_1_12_0_0 + flow_2_12_0_0
   + flow_3_12_0_0 + flow_4_12_0_0 + flow_5_12_0_0 + flow_7_12_0_0
   + flow_8_12_0_0 + flow_9_12_0_0 + flow_10_12_0_0 + flow_11_12_0_0
   - flow_12_1_0_0 - flow_12_2_0_0 - flow_12_4_0_0 - flow_12_5_0_0
   - flow_12_7_0_0 - flow_12_8_0_0 - flow_12_9_0_0 - flow_12_10_0_0
   - flow_12_11_0_0 - flow_12_13_0_0 - flow_12_15_0_0 - flow_12_16_0_0
   + flow_13_12_0_0 + flow_15_12_0_0 + flow_16_12_0_0 = 1
 one_parent_13: edge_0_13_0_0 + edge_1_13_0_0 + edge_2_13_0_0
   + edge_3_13_0_0 + edge_4_13_0_0 + edge_5_13_0_0 + edge_7_13_0_0
   + edge_8_13_0_0 + edge_9_13_0_0 + edge_10_13_0_0 + edge_11_13_0_0
   + edge_12_13_0_0 + edge_15_13_0_0 + edge_16_13_0_0 = 1
 consume_one_flow_unit_13: flow_0_13_0_0 + flow_1_13_0_0 + flow_2_13_0_0
   + flow_3_13_0_0 + flow_4_13_0_0 + flow_5_13_0_0 + flow_7_13_0_0
   + flow_8_13_0_0 + flow_9_13_0_0 + flow_10_13_0_0 + flow_11_13_0_0
   + flow_12_13_0_0 - flow_13_1_0_0 - flow_13_2_0_0 - flow_13_3_0_0
   - flow_13_4_0_0 - flow_13_5_0_0 - flow_13_7_0_0 - flow_13_8_0_0
   - flow_13_9_0_0 - flow_13_10_0_0 - flow_13_11_0_0 - flow_13_12_0_0
   - flow_13_14_0_0 - flow_13_15_0_0 - flow_13_16_0_0 + flow_15_13_0_0
   + flow_16_13_0_0 = 1
 one_parent_14: edge_4_14_0_0 + edge_7_14_0_0 + edge_8_14_0_0
   + edge_10_14_0_0 + edge_13_14_0_0 + edge_15_14_0_0 = 1
 consume_one_flow_unit_14: flow_4_14_0_0 + flow_7_14_0_0 + flow_8_14_0_0
   + flow_10_14_0_0 + flow_13_14_0_0 - flow_14_2_0_0 - flow_14_10_0_0
   - flow_14_16_0_0 + flow_15_14_0_0 = 1
 one_parent_15: edge_0_15_0_0 + edge_1_15_0_0 + edge_2_15_0_0
   + edge_3_15_0_0 + edge_4_15_0_0 + edge_5_15_0_0 + edge_7_15_0_0
   + edge_8_15_0_0 + edge_9_15_0_0 + edge_10_15_0_0 + edge_12_15_0_0
   + edge_13_15_0_0 + edge_16_15_0_0 = 1
 consume_one_flow_unit_15: flow_0_15_0_0 + flow_1_15_0_0 + flow_2_15_0_0
   + flow_3_15_0_0 + flow_4_15_0_0 + flow_5_15_0_0 + flow_7_15_0_0
   + flow_8_15_0_0 + flow_9_15_0_0 + flow_10_15_0_0 + flow_12_15_0_0
   + flow_13_15_0_0 - flow_15_1_0_0 - flow_15_2_0_0 - flow_15_3_0_0
   - flow_15_4_0_0 - flow_15_5_0_0 - flow_15_6_0_0 - flow_15_7_0_0
   - flow_15_8_0_0 - flow_15_9_0_0 - flow_15_10_0_0 - flow_15_11_0_0
   - flow_15_12_0_0 - flow_15_13_0_0 - flow_15_14_0_0 - flow_15_16_0_0
   + flow_16_15_0_0 = 1
 one_parent_16: edge_1_16_0_0 + edge_2_16_0_0 + edge_3_16_0_0
   + edge_4_16_0_0 + edge_5_16_0_0 + edge_7_16_0_0 + edge_9_16_0_0
   + edge_10_16_0_0 + edge_12_16_0_0 + edge_13_16_0_0 + edge_14_16_0_0
   + edge_15_16_0_0 = 1
 consume_one_flow_unit_16: flow_1_16_0_0 + flow_2_16_0_0 + flow_3_16_0_0
   + flow_4_16_0_0 + flow_5_16_0_0 + flow_7_16_0_0 + flow_9_16_0_0
   + flow_10_16_0_0 + flow_12_16_0_0 + flow_13_16_0_0 + flow_14_16_0_0
   + flow_15_16_0_0 - flow_16_12_0_0 - flow_16_13_0_0 - flow_16_15_0_0 = 1
 root_flow: flow_0_1_0_0 + flow_0_2_0_0 + flow_0_3_0_0 + flow_0_4_0_0
   + flow_0_5_0_0 + flow_0_7_0_0 + flow_0_10_0_0 + flow_0_12_0_0
   + flow_0_13_0_0 + flow_0_15_0_0 = 16
 inactive_no_flow_0_1_0_0: flow_0_1_0_0 - 1000 edge_0_1_0_0 <= 0
 inactive_no_flow_0_2_0_0: flow_0_2_0_0 - 1000 edge_0_2_0_0 <= 0
 inactive_no_flow_0_3_0_0: flow_0_3_0_0 - 1000 edge_0_3_0_0 <= 0
 inactive_no_flow_0_4_0_0: flow_0_4_0_0 - 1000 edge_0_4_0_0 <= 0
 inactive_no_flow_0_5_0_0: flow_0_5_0_0 - 1000 edge_0_5_0_0 <= 0
 inactive_no_flow_0_7_0_0: flow_0_7_0_0 - 1000 edge_0_7_0_0 <= 0
 inactive_no_flow_0_10_0_0: flow_0_10_0_0 - 1000 edge_0_10_0_0 <= 0
 inactive_no_flow_0_12_0_0: flow_0_12_0_0 - 1000 edge_0_12_0_0 <= 0
 inactive_no_flow_0_13_0_0: flow_0_13_0_0 - 1000 edge_0_13_0_0 <= 0
 inactive_no_flow_0_15_0_0: flow_0_15_0_0 - 1000 edge_0_15_0_0 <= 0
 inactive_no_flow_1_2_0_0: flow_1_2_0_0 - 1000 edge_1_2_0_0 <= 0
 inactive_no_flow_1_3_0_0: flow_1_3_0_0 - 1000 edge_1_3_0_0 <= 0
 inactive_no_flow_1_4_0_0: flow_1_4_0_0 - 1000 edge_1_4_0_0 <= 0
 inactive_no_flow_1_5_0_0: flow_1_5_0_0 - 1000 edge_1_5_0_0 <= 0
 inactive_no_flow_1_7_0_0: flow_1_7_0_0 - 1000 edge_1_7_0_0 <= 0
 inactive_no_flow_1_8_0_0: flow_1_8_0_0 - 1000 edge_1_8_0_0 <= 0
 inactive_no_flow_1_10_0_0: flow_1_10_0_0 - 1000 edge_1_10_0_0 <= 0
 inactive_no_flow_1_12_0_0: flow_1_12_0_0 - 1000 edge_1_12_0_0 <= 0
 inactive_no_flow_1_13_0_0: flow_1_13_0_0 - 1000 edge_1_13_0_0 <= 0
 inactive_no_flow_1_15_0_0: flow_1_15_0_0 - 1000 edge_1_15_0_0 <= 0
 inactive_no_flow_1_16_0_0: flow_1_16_0_0 - 1000 edge_1_16_0_0 <= 0
 inactive_no_flow_2_1_0_0: flow_2_1_0_0 - 1000 edge_2_1_0_0 <= 0
 inactive_no_flow_2_3_0_0: flow_2_3_0_0 - 1000 edge_2_3_0_0 <= 0
 inactive_no_flow_2_4_0_0: flow_2_4_0_0 - 1000 edge_2_4_0_0 <= 0
 inactive_no_flow_2_5_0_0: flow_2_5_0_0 - 1000 edge_2_5_0_0 <= 0
 inactive_no_flow_2_6_0_0: flow_2_6_0_0 - 1000 edge_2_6_0_0 <= 0
 inactive_no_flow_2_7_0_0: flow_2_7_0_0 - 1000 edge_2_7_0_0 <= 0
 inactive_no_flow_2_8_0_0: flow_2_8_0_0 - 1000 edge_2_8_0_0 <= 0
 inactive_no_flow_2_9_0_0: flow_2_9_0_0 - 1000 edge_2_9_0_0 <= 0
 inactive_no_flow_2_10_0_0: flow_2_10_0_0 - 1000 edge_2_10_0_0 <= 0
 inactive_no_flow_2_11_0_0: flow_2_11_0_0 - 1000 edge_2_11_0_0 <= 0
 inactive_no_flow_2_12_0_0: flow_2_12_0_0 - 1000 edge_2_12_0_0 <= 0
 inactive_no_flow_2_13_0_0: flow_2_13_0_0 - 1000 edge_2_13_0_0 <= 0
 inactive_no_flow_2_15_0_0: flow_2_15_0_0 - 1000 edge_2_15_0_0 <= 0
 inactive_no_flow_2_16_0_0: flow_2_16_0_0 - 1000 edge_2_16_0_0 <= 0
 inactive_no_flow_3_1_0_0: flow_3_1_0_0 - 1000 edge_3_1_0_0 <= 0
 inactive_no_flow_3_2_0_0: flow_3_2_0_0 - 1000 edge_3_2_0_0 <= 0
 inactive_no_flow_3_4_0_0: flow_3_4_0_0 - 1000 edge_3_4_0_0 <= 0
 inactive_no_flow_3_5_0_0: flow_3_5_0_0 - 1000 edge_3_5_0_0 <= 0
 inactive_no_flow_3_6_0_0: flow_3_6_0_0 - 1000 edge_3_6_0_0 <= 0
 inactive_no_flow_3_7_0_0: flow_3_7_0_0 - 1000 edge_3_7_0_0 <= 0
 inactive_no_flow_3_8_0_0: flow_3_8_0_0 - 1000 edge_3_8_0_0 <= 0
 inactive_no_flow_3_9_0_0: flow_3_9_0_0 - 1000 edge_3_9_0_0 <= 0
 inactive_no_flow_3_10_0_0: flow_3_10_0_0 - 1000 edge_3_10_0_0 <= 0
 inactive_no_flow_3_12_0_0: flow_3_12_0_0 - 1000 edge_3_12_0_0 <= 0
 inactive_no_flow_3_13_0_0: flow_3_13_0_0 - 1000 edge_3_13_0_0 <= 0
 inactive_no_flow_3_15_0_0: flow_3_15_0_0 - 1000 edge_3_15_0_0 <= 0
 inactive_no_flow_3_16_0_0: flow_3_16_0_0 - 1000 edge_3_16_0_0 <= 0
 inactive_no_flow_4_1_0_0: flow_4_1_0_0 - 1000 edge_4_1_0_0 <= 0
 inactive_no_flow_4_2_0_0: flow_4_2_0_0 - 1000 edge_4_2_0_0 <= 0
 inactive_no_flow_4_3_0_0: flow_4_3_0_0 - 1000 edge_4_3_0_0 <= 0
 inactive_no_flow_4_5_0_0: flow_4_5_0_0 - 1000 edge_4_5_0_0 <= 0
 inactive_no_flow_4_6_0_0: flow_4_6_0_0 - 1000 edge_4_6_0_0 <= 0
 inactive_no_flow_4_7_0_0: flow_4_7_0_0 - 1000 edge_4_7_0_0 <= 0
 inactive_no_flow_4_8_0_0: flow_4_8_0_0 - 1000 edge_4_8_0_0 <= 0
 inactive_no_flow_4_9_0_0: flow_4_9_0_0 - 1000 edge_4_9_0_0 <= 0
 inactive_no_flow_4_10_0_0: flow_4_10_0_0 - 1000 edge_4_10_0_0 <= 0
 inactive_no_flow_4_11_0_0: flow_4_11_0_0 - 1000 edge_4_11_0_0 <= 0
 inactive_no_flow_4_12_0_0: flow_4_12_0_0 - 1000 edge_4_12_0_0 <= 0
 inactive_no_flow_4_13_0_0: flow_4_13_0_0 - 1000 edge_4_13_0_0 <= 0
 inactive_no_flow_4_14_0_0: flow_4_14_0_0 - 1000 edge_4_14_0_0 <= 0
 inactive_no_flow_4_15_0_0: flow_4_15_0_0 - 1000 edge_4_15_0_0 <= 0
 inactive_no_flow_4_16_0_0: flow_4_16_0_0 - 1000 edge_4_16_0_0 <= 0
 inactive_no_flow_5_1_0_0: flow_5_1_0_0 - 1000 edge_5_1_0_0 <= 0
 inactive_no_flow_5_2_0_0: flow_5_2_0_0 - 1000 edge_5_2_0_0 <= 0
 inactive_no_flow_5_3_0_0: flow_5_3_0_0 - 1000 edge_5_3_0_0 <= 0
 inactive_no_flow_5_4_0_0: flow_5_4_0_0 - 1000 edge_5_4_0_0 <= 0
 inactive_no_flow_5_6_0_0: flow_5_6_0_0 - 1000 edge_5_6_0_0 <= 0
 inactive_no_flow_5_7_0_0: flow_5_7_0_0 - 1000 edge_5_7_0_0 <= 0
 inactive_no_flow_5_8_0_0: flow_5_8_0_0 - 1000 edge_5_8_0_0 <= 0
 inactive_no_flow_5_9_0_0: flow_5_9_0_0 - 1000 edge_5_9_0_0 <= 0
 inactive_no_flow_5_10_0_0: flow_5_10_0_0 - 1000 edge_5_10_0_0 <= 0
 inactive_no_flow_5_11_0_0: flow_5_11_0_0 - 1000 edge_5_11_0_0 <= 0
 inactive_no_flow_5_12_0_0: flow_5_12_0_0 - 1000 edge_5_12_0_0 <= 0
 inactive_no_flow_5_13_0_0: flow_5_13_0_0 - 1000 edge_5_13_0_0 <= 0
 inactive_no_flow_5_15_0_0: flow_5_15_0_0 - 1000 edge_5_15_0_0 <= 0
 inactive_no_flow_5_16_0_0: flow_5_16_0_0 - 1000 edge_5_16_0_0 <= 0
 inactive_no_flow_6_2_0_0: flow_6_2_0_0 - 1000 edge_6_2_0_0 <= 0
 inactive_no_flow_6_4_0_0: flow_6_4_0_0 - 1000 edge_6_4_0_0 <= 0
 inactive_no_flow_6_5_0_0: flow_6_5_0_0 - 1000 edge_6_5_0_0 <= 0
 inactive_no_flow_6_10_0_0: flow_6_10_0_0 - 1000 edge_6_10_0_0 <= 0
 inactive_no_flow_7_1_0_0: flow_7_1_0_0 - 1000 edge_7_1_0_0 <= 0
 inactive_no_flow_7_2_0_0: flow_7_2_0_0 - 1000 edge_7_2_0_0 <= 0
 inactive_no_flow_7_3_0_0: flow_7_3_0_0 - 1000 edge_7_3_0_0 <= 0
 inactive_no_flow_7_4_0_0: flow_7_4_0_0 - 1000 edge_7_4_0_0 <= 0
 inactive_no_flow_7_5_0_0: flow_7_5_0_0 - 1000 edge_7_5_0_0 <= 0
 inactive_no_flow_7_6_0_0: flow_7_6_0_0 - 1000 edge_7_6_0_0 <= 0
 inactive_no_flow_7_8_0_0: flow_7_8_0_0 - 1000 edge_7_8_0_0 <= 0
 inactive_no_flow_7_9_0_0: flow_7_9_0_0 - 1000 edge_7_9_0_0 <= 0
 inactive_no_flow_7_10_0_0: flow_7_10_0_0 - 1000 edge_7_10_0_0 <= 0
 inactive_no_flow_7_11_0_0: flow_7_11_0_0 - 1000 edge_7_11_0_0 <= 0
 inactive_no_flow_7_12_0_0: flow_7_12_0_0 - 1000 edge_7_12_0_0 <= 0
 inactive_no_flow_7_13_0_0: flow_7_13_0_0 - 1000 edge_7_13_0_0 <= 0
 inactive_no_flow_7_14_0_0: flow_7_14_0_0 - 1000 edge_7_14_0_0 <= 0
 inactive_no_flow_7_15_0_0: flow_7_15_0_0 - 1000 edge_7_15_0_0 <= 0
 inactive_no_flow_7_16_0_0: flow_7_16_0_0 - 1000 edge_7_16_0_0 <= 0
 inactive_no_flow_8_5_0_0: flow_8_5_0_0 - 1000 edge_8_5_0_0 <= 0
 inactive_no_flow_8_7_0_0: flow_8_7_0_0 - 1000 edge_8_7_0_0 <= 0
 inactive_no_flow_8_10_0_0: flow_8_10_0_0 - 1000 edge_8_10_0_0 <= 0
 inactive_no_flow_8_12_0_0: flow_8_12_0_0 - 1000 edge_8_12_0_0 <= 0
 inactive_no_flow_8_13_0_0: flow_8_13_0_0 - 1000 edge_8_13_0_0 <= 0
 inactive_no_flow_8_14_0_0: flow_8_14_0_0 - 1000 edge_8_14_0_0 <= 0
 inactive_no_flow_8_15_0_0: flow_8_15_0_0 - 1000 edge_8_15_0_0 <= 0
 inactive_no_flow_9_2_0_0: flow_9_2_0_0 - 1000 edge_9_2_0_0 <= 0
 inactive_no_flow_9_5_0_0: flow_9_5_0_0 - 1000 edge_9_5_0_0 <= 0
 inactive_no_flow_9_7_0_0: flow_9_7_0_0 - 1000 edge_9_7_0_0 <= 0
 inactive_no_flow_9_8_0_0: flow_9_8_0_0 - 1000 edge_9_8_0_0 <= 0
 inactive_no_flow_9_10_0_0: flow_9_10_0_0 - 1000 edge_9_10_0_0 <= 0
 inactive_no_flow_9_11_0_0: flow_9_11_0_0 - 1000 edge_9_11_0_0 <= 0
 inactive_no_flow_9_12_0_0: flow_9_12_0_0 - 1000 edge_9_12_0_0 <= 0
 inactive_no_flow_9_13_0_0: flow_9_13_0_0 - 1000 edge_9_13_0_0 <= 0
 inactive_no_flow_9_15_0_0: flow_9_15_0_0 - 1000 edge_9_15_0_0 <= 0
 inactive_no_flow_9_16_0_0: flow_9_16_0_0 - 1000 edge_9_16_0_0 <= 0
 inactive_no_flow_10_1_0_0: flow_10_1_0_0 - 1000 edge_10_1_0_0 <= 0
 inactive_no_flow_10_2_0_0: flow_10_2_0_0 - 1000 edge_10_2_0_0 <= 0
 inactive_no_flow_10_3_0_0: flow_10_3_0_0 - 1000 edge_10_3_0_0 <= 0
 inactive_no_flow_10_4_0_0: flow_10_4_0_0 - 1000 edge_10_4_0_0 <= 0
 inactive_no_flow_10_5_0_0: flow_10_5_0_0 - 1000 edge_10_5_0_0 <= 0
 inactive_no_flow_10_6_0_0: flow_10_6_0_0 - 1000 edge_10_6_0_0 <= 0
 inactive_no_flow_10_7_0_0: flow_10_7_0_0 - 1000 edge_10_7_0_0 <= 0
 inactive_no_flow_10_8_0_0: flow_10_8_0_0 - 1000 edge_10_8_0_0 <= 0
 inactive_no_flow_10_9_0_0: flow_10_9_0_0 - 1000 edge_10_9_0_0 <= 0
 inactive_no_flow_10_11_0_0: flow_10_11_0_0 - 1000 edge_10_11_0_0 <= 0
 inactive_no_flow_10_12_0_0: flow_10_12_0_0 - 1000 edge_10_12_0_0 <= 0
 inactive_no_flow_10_13_0_0: flow_10_13_0_0 - 1000 edge_10_13_0_0 <= 0
 inactive_no_flow_10_14_0_0: flow_10_14_0_0 - 1000 edge_10_14_0_0 <= 0
 inactive_no_flow_10_15_0_0: flow_10_15_0_0 - 1000 edge_10_15_0_0 <= 0
 inactive_no_flow_10_16_0_0: flow_10_16_0_0 - 1000 edge_10_16_0_0 <= 0
 inactive_no_flow_11_12_0_0: flow_11_12_0_0 - 1000 edge_11_12_0_0 <= 0
 inactive_no_flow_11_13_0_0: flow_11_13_0_0 - 1000 edge_11_13_0_0 <= 0
 inactive_no_flow_12_1_0_0: flow_12_1_0_0 - 1000 edge_12_1_0_0 <= 0
 inactive_no_flow_12_2_0_0: flow_12_2_0_0 - 1000 edge_12_2_0_0 <= 0
 inactive_no_flow_12_4_0_0: flow_12_4_0_0 - 1000 edge_12_4_0_0 <= 0
 inactive_no_flow_12_5_0_0: flow_12_5_0_0 - 1000 edge_12_5_0_0 <= 0
 inactive_no_flow_12_7_0_0: flow_12_7_0_0 - 1000 edge_12_7_0_0 <= 0
 inactive_no_flow_12_8_0_0: flow_12_8_0_0 - 1000 edge_12_8_0_0 <= 0
 inactive_no_flow_12_9_0_0: flow_12_9_0_0 - 1000 edge_12_9_0_0 <= 0
 inactive_no_flow_12_10_0_0: flow_12_10_0_0 - 1000 edge_12_10_0_0 <= 0
 inactive_no_flow_12_11_0_0: flow_12_11_0_0 - 1000 edge_12_11_0_0 <= 0
 inactive_no_flow_12_13_0_0: flow_12_13_0_0 - 1000 edge_12_13_0_0 <= 0
 inactive_no_flow_12_15_0_0: flow_12_15_0_0 - 1000 edge_12_15_0_0 <= 0
 inactive_no_flow_12_16_0_0: flow_12_16_0_0 - 1000 edge_12_16_0_0 <= 0
 inactive_no_flow_13_1_0_0: flow_13_1_0_0 - 1000 edge_13_1_0_0 <= 0
 inactive_no_flow_13_2_0_0: flow_13_2_0_0 - 1000 edge_13_2_0_0 <= 0
 inactive_no_flow_13_3_0_0: flow_13_3_0_0 - 1000 edge_13_3_0_0 <= 0
 inactive_no_flow_13_4_0_0: flow_13_4_0_0 - 1000 edge_13_4_0_0 <= 0
 inactive_no_flow_13_5_0_0: flow_13_5_0_0 - 1000 edge_13_5_0_0 <= 0
 inactive_no_flow_13_7_0_0: flow_13_7_0_0 - 1000 edge_13_7_0_0 <= 0
 inactive_no_flow_13_8_0_0: flow_13_8_0_0 - 1000 edge_13_8_0_0 <= 0
 inactive_no_flow_13_9_0_0: flow_13_9_0_0 - 1000 edge_13_9_0_0 <= 0
 inactive_no_flow_13_10_0_0: flow_13_10_0_0 - 1000 edge_13_10_0_0 <= 0
 inactive_no_flow_13_11_0_0: flow_13_11_0_0 - 1000 edge_13_11_0_0 <= 0
 inactive_no_flow_13_12_0_0: flow_13_12_0_0 - 1000 edge_13_12_0_0 <= 0
 inactive_no_flow_13_14_0_0: flow_13_14_0_0 - 1000 edge_13_14_0_0 <= 0
 inactive_no_flow_13_15_0_0: flow_13_15_0_0 - 1000 edge_13_15_0_0 <= 0
 inactive_no_flow_13_16_0_0: flow_13_16_0_0 - 1000 edge_13_16_0_0 <= 0
 inactive_no_flow_14_2_0_0: flow_14_2_0_0 - 1000 edge_14_2_0_0 <= 0
 inactive_no_flow_14_10_0_0: flow_14_10_0_0 - 1000 edge_14_10_0_0 <= 0
 inactive_no_flow_14_16_0_0: flow_14_16_0_0 - 1000 edge_14_16_0_0 <= 0
 inactive_no_flow_15_1_0_0: flow_15_1_0_0 - 1000 edge_15_1_0_0 <= 0
 inactive_no_flow_15_2_0_0: flow_15_2_0_0 - 1000 edge_15_2_0_0 <= 0
 inactive_no_flow_15_3_0_0: flow_15_3_0_0 - 1000 edge_15_3_0_0 <= 0
 inactive_no_flow_15_4_0_0: flow_15_4_0_0 - 1000 edge_15_4_0_0 <= 0
 inactive_no_flow_15_5_0_0: flow_15_5_0_0 - 1000 edge_15_5_0_0 <= 0
 inactive_no_flow_15_6_0_0: flow_15_6_0_0 - 1000 edge_15_6_0_0 <= 0
 inactive_no_flow_15_7_0_0: flow_15_7_0_0 - 1000 edge_15_7_0_0 <= 0
 inactive_no_flow_15_8_0_0: flow_15_8_0_0 - 1000 edge_15_8_0_0 <= 0
 inactive_no_flow_15_9_0_0: flow_15_9_0_0 - 1000 edge_15_9_0_0 <= 0
 inactive_no_flow_15_10_0_0: flow_15_10_0_0 - 1000 edge_15_10_0_0 <= 0
 inactive_no_flow_15_11_0_0: flow_15_11_0_0 - 1000 edge_15_11_0_0 <= 0
 inactive_no_flow_15_12_0_0: flow_15_12_0_0 - 1000 edge_15_12_0_0 <= 0
 inactive_no_flow_15_13_0_0: flow_15_13_0_0 - 1000 edge_15_13_0_0 <= 0
 inactive_no_flow_15_14_0_0: flow_15_14_0_0 - 1000 edge_15_14_0_0 <= 0
 inactive_no_flow_15_16_0_0: flow_15_16_0_0 - 1000 edge_15_16_0_0 <= 0
 inactive_no_flow_16_12_0_0: flow_16_12_0_0 - 1000 edge_16_12_0_0 <= 0
 inactive_no_flow_16_13_0_0: flow_16_13_0_0 - 1000 edge_16_13_0_0 <= 0
 inactive_no_flow_16_15_0_0: flow_16_15_0_0 - 1000 edge_16_15_0_0 <= 0
Bounds
Binaries
 edge_0_1_0_0 edge_0_2_0_0 edge_0_3_0_0 edge_0_4_0_0 edge_0_5_0_0
 edge_0_7_0_0 edge_0_10_0_0 edge_0_12_0_0 edge_0_13_0_0 edge_0_15_0_0
 edge_1_2_0_0 edge_1_3_0_0 edge_1_4_0_0 edge_1_5_0_0 edge_1_7_0_0
 edge_1_8_0_0 edge_1_10_0_0 edge_1_12_0_0 edge_1_13_0_0 edge_1_15_0_0
 edge_1_16_0_0 edge_2_1_0_0 edge_2_3_0_0 edge_2_4_0_0 edge_2_5_0_0
 edge_2_6_0_0 edge_2_7_0_0 edge_2_8_0_0 edge_2_9_0_0 edge_2_10_0_0
 edge_2_11_0_0 edge_2_12_0_0 edge_2_13_0_0 edge_2_15_0_0 edge_2_16_0_0
 edge_3_1_0_0 edge_3_2_0_0 edge_3_4_0_0 edge_3_5_0_0 edge_3_6_0_0
 edge_3_7_0_0 edge_3_8_0_0 edge_3_9_0_0 edge_3_10_0_0 edge_3_12_0_0
 edge_3_13_0_0 edge_3_15_0_0 edge_3_16_0_0 edge_4_1_0_0 edge_4_2_0_0
 edge_4_3_0_0 edge_4_5_0_0 edge_4_6_0_0 edge_4_7_0_0 edge_4_8_0_0
 edge_4_9_0_0 edge_4_10_0_0 edge_4_11_0_0 edge_4_12_0_0 edge_4_13_0_0
 edge_4_14_0_0 edge_4_15_0_0 edge_4_16_0_0 edge_5_1_0_0 edge_5_2_0_0
 edge_5_3_0_0 edge_5_4_0_0 edge_5_6_0_0 edge_5_7_0_0 edge_5_8_0_0
 edge_5_9_0_0 edge_5_10_0_0 edge_5_11_0_0 edge_5_12_0_0 edge_5_13_0_0
 edge_5_15_0_0 edge_5_16_0_0 edge_6_2_0_0 edge_6_4_0_0 edge_6_5_0_0
 edge_6_10_0_0 edge_7_1_0_0 edge_7_2_0_0 edge_7_3_0_0 edge_7_4_0_0
 edge_7_5_0_0 edge_7_6_0_0 edge_7_8_0_0 edge_7_9_0_0 edge_7_10_0_0
 edge_7_11_0_0 edge_7_12_0_0 edge_7_13_0_0 edge_7_14_0_0 edge_7_15_0_0
 edge_7_16_0_0 edge_8_5_0_0 edge_8_7_0_0 edge_8_10_0_0 edge_8_12_0_0
 edge_8_13_0_0 edge_8_14_0_0 edge_8_15_0_0 edge_9_2_0_0 edge_9_5_0_0
 edge_9_7_0_0 edge_9_8_0_0 edge_9_10_0_0 edge_9_11_0_0 edge_9_12_0_0
 edge_9_13_0_0 edge_9_15_0_0 edge_9_16_0_0 edge_10_1_0_0 edge_10_2_0_0
 edge_10_3_0_0 edge_10_4_0_0 edge_10_5_0_0 edge_10_6_0_0 edge_10_7_0_0
 edge_10_8_0_0 edge_10_9_0_0 edge_10_11_0_0 edge_10_12_0_0 edge_10_13_0_0
 edge_10_14_0_0 edge_10_15_0_0 edge_10_16_0_0 edge_11_12_0_0 edge_11_13_0_0
 edge_12_1_0_0 edge_12_2_0_0 edge_12_4_0_0 edge_12_5_0_0 edge_12_7_0_0
 edge_12_8_0_0 edge_12_9_0_0 edge_12_10_0_0 edge_12_11_0_0 edge_12_13_0_0
 edge_12_15_0_0 edge_12_16_0_0 edge_13_1_0_0 edge_13_2_0_0 edge_13_3_0_0
 edge_13_4_0_0 edge_13_5_0_0 edge_13_7_0_0 edge_13_8_0_0 edge_13_9_0_0
 edge_13_10_0_0 edge_13_11_0_0 edge_13_12_0_0 edge_13_14_0_0 edge_13_15_0_0
 edge_13_16_0_0 edge_14_2_0_0 edge_14_10_0_0 edge_14_16_0_0 edge_15_1_0_0
 edge_15_2_0_0 edge_15_3_0_0 edge_15_4_0_0 edge_15_5_0_0 edge_15_6_0_0
 edge_15_7_0_0 edge_15_8_0_0 edge_15_9_0_0 edge_15_10_0_0 edge_15_11_0_0
 edge_15_12_0_0 edge_15_13_0_0 edge_15_14_0_0 edge_15_16_0_0 edge_16_12_0_0
 edge_16_13_0_0 edge_16_15_0_0
End
